&CONTROL
	calculation = 'scf' ,
	restart_mode = 'from_scratch' ,
	prefix ='prefix'
	pseudo_dir = '/path/',
	outdir = '/path/',
	wf_collect = .true.
	wfcdir = '/path/',
	tstress = .true.
	tprnfor = .true.
	disk_io = 'low'
/
&SYSTEM
	ibrav = 0,
	nat =,
	ntyp = 5,
 	ecutwfc = 100.0D0,
	ecutrho = 400.0D0,
	vdw_corr = 'dft-d',
        nbnd =,
/
&ELECTRONS
	conv_thr = 1.D-8,
  	mixing_beta = 0.5D0,
	electron_maxstep = 300,
/
ATOMIC_SPECIES
    	C	12.0107		C.pbe-n-kjpaw_psl.0.1.UPF
	N	14.0067		N.pbe-n-kjpaw_psl.0.1.UPF
	H	01.00794	H.pbe-kjpaw_psl.0.1.UPF
	O	15.9994		O.pbe-n-kjpaw_psl.0.1.UPF
	S	32.065		S.pbe-n-kjpaw_psl.0.1.UPF
ATOMIC_POSITIONS angstrom
K_POINTS automatic
CELL_PARAMETERS angstrom
